(declare-fun _for_it_23 () Int)
(declare-fun _for_it_47 () Int)
(declare-fun kfdia () Int)
(declare-fun kidia () Int)
(declare-fun klev () Int)
(declare-fun ncldtop () Int)

(assert (forall ((_if_cond_44_val (Array Int Int)) (_if_cond_45_val (Array Int Int)))
  (and
    (or
      (not (= (- (+ _for_it_47 1) 1) (+ _for_it_47 1)))
      (not (= (select _if_cond_45_val (- (+ _for_it_47 (* (- (+ _for_it_23 1) ncldtop) (- kfdia kidia)) 2) kidia)) 1))
    )
    (not (= (- (+ _for_it_47 (* (- (+ _for_it_23 1) ncldtop) (- kfdia kidia)) 1) kidia) (- (+ _for_it_47 (* (- (+ _for_it_23 1) ncldtop) (- kfdia kidia)) 2) kidia)))
    (or
      (not (= (select _if_cond_45_val (- (+ _for_it_47 (* (- (+ _for_it_23 1) ncldtop) (- kfdia kidia)) 2) kidia)) 1))
      (= (select _if_cond_44_val (- (+ _for_it_47 (* (- (+ _for_it_23 1) ncldtop) (- kfdia kidia)) 1) kidia)) 1)
      (not (= _for_it_47 (+ _for_it_47 1)))
    )
    (or
      (= (select _if_cond_44_val (- (+ _for_it_47 (* (- (+ _for_it_23 1) ncldtop) (- kfdia kidia)) 1) kidia)) 1)
      (= (select _if_cond_44_val (- (+ _for_it_47 (* (- (+ _for_it_23 1) ncldtop) (- kfdia kidia)) 2) kidia)) 1)
      (not (= _for_it_47 (+ _for_it_47 1)))
    )
    (or
      (not (= (select _if_cond_44_val (- (+ _for_it_47 (* (- (+ _for_it_23 1) ncldtop) (- kfdia kidia)) 2) kidia)) 1))
      (not (= _for_it_47 (+ _for_it_47 1)))
      (= (select _if_cond_44_val (- (+ _for_it_47 (* (- (+ _for_it_23 1) ncldtop) (- kfdia kidia)) 1) kidia)) 1)
    )
    (or
      (not (= (select _if_cond_45_val (- (+ _for_it_47 (* (- (+ _for_it_23 1) ncldtop) (- kfdia kidia)) 2) kidia)) 1))
      (not (= (select _if_cond_44_val (- (+ _for_it_47 (* (- (+ _for_it_23 1) ncldtop) (- kfdia kidia)) 1) kidia)) 1))
      (not (= _for_it_47 (+ _for_it_47 1)))
    )
    (or
      (not (= (select _if_cond_44_val (- (+ _for_it_47 (* (- (+ _for_it_23 1) ncldtop) (- kfdia kidia)) 1) kidia)) 1))
      (= (select _if_cond_44_val (- (+ _for_it_47 (* (- (+ _for_it_23 1) ncldtop) (- kfdia kidia)) 2) kidia)) 1)
      (not (= _for_it_47 (+ _for_it_47 1)))
    )
    (or
      (not (= (select _if_cond_44_val (- (+ _for_it_47 (* (- (+ _for_it_23 1) ncldtop) (- kfdia kidia)) 1) kidia)) 1))
      (not (= (select _if_cond_44_val (- (+ _for_it_47 (* (- (+ _for_it_23 1) ncldtop) (- kfdia kidia)) 2) kidia)) 1))
      (not (= _for_it_47 (+ _for_it_47 1)))
    )
    (and
      (<= (+ kidia (- 1)) _for_it_47)
      (<= kidia (+ kfdia (- 1)))
      (<= ncldtop (+ klev (- 1)))
      (<= (+ _for_it_47 1) (+ kfdia (- 1)))
    )
    (or
      (not (= (select _if_cond_45_val (- (+ _for_it_47 (* (- (+ _for_it_23 1) ncldtop) (- kfdia kidia)) 2) kidia)) 1))
      (not (= (select _if_cond_45_val (- (+ _for_it_47 (* (- (+ _for_it_23 1) ncldtop) (- kfdia kidia)) 1) kidia)) 1))
      (not (= _for_it_47 (+ _for_it_47 1)))
    )
    (or
      (not (= (select _if_cond_45_val (- (+ _for_it_47 (* (- (+ _for_it_23 1) ncldtop) (- kfdia kidia)) 2) kidia)) 1))
      (not (= (select _if_cond_45_val (- (+ _for_it_47 (* (- (+ _for_it_23 1) ncldtop) (- kfdia kidia)) 1) kidia)) 1))
    )
    (or
      (not (= _for_it_47 (- (+ _for_it_47 2) 1)))
      (not (= (select _if_cond_45_val (- (+ _for_it_47 (* (- (+ _for_it_23 1) ncldtop) (- kfdia kidia)) 1) kidia)) 1))
    )
    (or
      (= (select _if_cond_44_val (- (+ _for_it_47 (* (- (+ _for_it_23 1) ncldtop) (- kfdia kidia)) 2) kidia)) 1)
      (not (= (select _if_cond_45_val (- (+ _for_it_47 (* (- (+ _for_it_23 1) ncldtop) (- kfdia kidia)) 1) kidia)) 1))
      (not (= _for_it_47 (+ _for_it_47 1)))
    )
    (or
      (not (= (select _if_cond_44_val (- (+ _for_it_47 (* (- (+ _for_it_23 1) ncldtop) (- kfdia kidia)) 2) kidia)) 1))
      (not (= (select _if_cond_45_val (- (+ _for_it_47 (* (- (+ _for_it_23 1) ncldtop) (- kfdia kidia)) 1) kidia)) 1))
      (not (= _for_it_47 (+ _for_it_47 1)))
    )
  )
))

(check-sat)